NAME : portcgen-30-27
COMMENT : portcgen N=30, seed=27
TYPE : TSP
DIMENSION : 30
EDGE_WEIGHT_TYPE : EUC_2D
NODE_COORD_SECTION
1 -6757 352456
2 15756 -62717
3 -43587 209689
4 111675 183042
5 -53114 105834
6 -15350 -87992
7 -232413 106256
8 -33023 200401
9 64748 114813
10 -14185 95805
11 -168686 -240598
12 -240176 -244921
13 36474 -46423
14 43682 -199761
15 -105251 104694
16 187429 -111309
17 241733 145466
18 183991 -157787
19 63440 229316
20 -238727 195810
21 43415 281619
22 -2549 424723
23 -126127 -150590
24 -7084 345143
25 13602 74022
26 -16208 -279556
27 67973 252645
28 129593 -315971
29 187212 249692
30 -12850 132491
